Code 834
Dimension, Median 
   128       16     
 Facility, Client, Transportation Cost
     1        1           2
     1        2           2
     1        3           2
     1        5           3
     1        9           2
     1       17           2
     1       33           4
     1       65           2
     2        1           3
     2        2           2
     2        4           0
     2        6           1
     2       10           0
     2       18           2
     2       34           2
     2       66           3
     3        1           3
     3        3           2
     3        4           1
     3        7           3
     3       11           3
     3       19           1
     3       35           2
     3       67           3
     4        2           3
     4        3           2
     4        4           0
     4        8           2
     4       12           3
     4       20           0
     4       36           0
     4       68           0
     5        1           0
     5        5           3
     5        6           4
     5        7           3
     5       13           2
     5       21           1
     5       37           1
     5       69           3
     6        2           4
     6        5           2
     6        6           2
     6        8           1
     6       14           4
     6       22           3
     6       38           3
     6       70           0
     7        3           0
     7        5           4
     7        7           2
     7        8           2
     7       15           1
     7       23           4
     7       39           0
     7       71           1
     8        4           4
     8        6           1
     8        7           0
     8        8           1
     8       16           4
     8       24           1
     8       40           4
     8       72           4
     9        1           0
     9        9           1
     9       10           2
     9       11           1
     9       13           1
     9       25           2
     9       41           0
     9       73           3
    10        2           1
    10        9           3
    10       10           0
    10       12           0
    10       14           2
    10       26           2
    10       42           1
    10       74           4
    11        3           3
    11        9           0
    11       11           3
    11       12           1
    11       15           0
    11       27           4
    11       43           2
    11       75           0
    12        4           1
    12       10           0
    12       11           4
    12       12           2
    12       16           4
    12       28           4
    12       44           2
    12       76           2
    13        5           4
    13        9           4
    13       13           3
    13       14           3
    13       15           1
    13       29           3
    13       45           0
    13       77           2
    14        6           3
    14       10           4
    14       13           3
    14       14           0
    14       16           0
    14       30           2
    14       46           1
    14       78           0
    15        7           4
    15       11           1
    15       13           3
    15       15           1
    15       16           2
    15       31           1
    15       47           3
    15       79           2
    16        8           4
    16       12           1
    16       14           2
    16       15           0
    16       16           3
    16       32           0
    16       48           3
    16       80           2
    17        1           4
    17       17           1
    17       18           0
    17       19           4
    17       21           1
    17       25           3
    17       49           3
    17       81           2
    18        2           2
    18       17           3
    18       18           2
    18       20           4
    18       22           3
    18       26           1
    18       50           2
    18       82           3
    19        3           0
    19       17           4
    19       19           2
    19       20           3
    19       23           2
    19       27           2
    19       51           2
    19       83           3
    20        4           2
    20       18           0
    20       19           2
    20       20           3
    20       24           0
    20       28           4
    20       52           1
    20       84           4
    21        5           2
    21       17           1
    21       21           4
    21       22           3
    21       23           3
    21       29           4
    21       53           0
    21       85           4
    22        6           1
    22       18           4
    22       21           2
    22       22           3
    22       24           2
    22       30           3
    22       54           1
    22       86           0
    23        7           1
    23       19           0
    23       21           2
    23       23           3
    23       24           0
    23       31           2
    23       55           3
    23       87           1
    24        8           4
    24       20           4
    24       22           3
    24       23           2
    24       24           0
    24       32           1
    24       56           2
    24       88           3
    25        9           3
    25       17           4
    25       25           0
    25       26           0
    25       27           2
    25       29           1
    25       57           2
    25       89           1
    26       10           2
    26       18           4
    26       25           4
    26       26           3
    26       28           4
    26       30           3
    26       58           1
    26       90           2
    27       11           4
    27       19           1
    27       25           2
    27       27           4
    27       28           1
    27       31           3
    27       59           4
    27       91           1
    28       12           0
    28       20           2
    28       26           1
    28       27           3
    28       28           2
    28       32           4
    28       60           1
    28       92           4
    29       13           1
    29       21           0
    29       25           0
    29       29           2
    29       30           3
    29       31           4
    29       61           0
    29       93           1
    30       14           1
    30       22           3
    30       26           1
    30       29           0
    30       30           2
    30       32           0
    30       62           3
    30       94           1
    31       15           2
    31       23           4
    31       27           4
    31       29           2
    31       31           1
    31       32           3
    31       63           2
    31       95           1
    32       16           1
    32       24           4
    32       28           2
    32       30           0
    32       31           0
    32       32           2
    32       64           3
    32       96           4
    33        1           3
    33       33           1
    33       34           0
    33       35           4
    33       37           0
    33       41           1
    33       49           0
    33       97           3
    34        2           1
    34       33           3
    34       34           3
    34       36           3
    34       38           3
    34       42           1
    34       50           2
    34       98           2
    35        3           4
    35       33           2
    35       35           0
    35       36           1
    35       39           4
    35       43           1
    35       51           3
    35       99           2
    36        4           0
    36       34           3
    36       35           1
    36       36           0
    36       40           3
    36       44           3
    36       52           1
    36      100           1
    37        5           0
    37       33           4
    37       37           2
    37       38           1
    37       39           4
    37       45           0
    37       53           4
    37      101           1
    38        6           0
    38       34           3
    38       37           3
    38       38           2
    38       40           0
    38       46           1
    38       54           2
    38      102           2
    39        7           0
    39       35           0
    39       37           2
    39       39           3
    39       40           0
    39       47           2
    39       55           1
    39      103           1
    40        8           3
    40       36           2
    40       38           4
    40       39           0
    40       40           4
    40       48           0
    40       56           2
    40      104           3
    41        9           2
    41       33           2
    41       41           3
    41       42           0
    41       43           3
    41       45           1
    41       57           0
    41      105           2
    42       10           0
    42       34           2
    42       41           4
    42       42           2
    42       44           0
    42       46           1
    42       58           2
    42      106           2
    43       11           2
    43       35           2
    43       41           2
    43       43           2
    43       44           1
    43       47           3
    43       59           1
    43      107           1
    44       12           1
    44       36           2
    44       42           3
    44       43           4
    44       44           1
    44       48           0
    44       60           0
    44      108           2
    45       13           0
    45       37           0
    45       41           1
    45       45           4
    45       46           2
    45       47           0
    45       61           3
    45      109           0
    46       14           4
    46       38           4
    46       42           4
    46       45           3
    46       46           0
    46       48           0
    46       62           0
    46      110           2
    47       15           0
    47       39           3
    47       43           3
    47       45           0
    47       47           4
    47       48           2
    47       63           2
    47      111           2
    48       16           3
    48       40           2
    48       44           0
    48       46           0
    48       47           2
    48       48           2
    48       64           4
    48      112           0
    49       17           2
    49       33           3
    49       49           3
    49       50           2
    49       51           4
    49       53           0
    49       57           0
    49      113           4
    50       18           2
    50       34           2
    50       49           0
    50       50           1
    50       52           1
    50       54           4
    50       58           2
    50      114           2
    51       19           0
    51       35           3
    51       49           3
    51       51           2
    51       52           1
    51       55           3
    51       59           0
    51      115           3
    52       20           1
    52       36           4
    52       50           2
    52       51           1
    52       52           1
    52       56           0
    52       60           0
    52      116           4
    53       21           1
    53       37           1
    53       49           3
    53       53           0
    53       54           4
    53       55           4
    53       61           4
    53      117           4
    54       22           3
    54       38           0
    54       50           3
    54       53           1
    54       54           0
    54       56           0
    54       62           0
    54      118           4
    55       23           3
    55       39           1
    55       51           1
    55       53           1
    55       55           2
    55       56           3
    55       63           3
    55      119           4
    56       24           2
    56       40           1
    56       52           2
    56       54           3
    56       55           4
    56       56           4
    56       64           2
    56      120           3
    57       25           3
    57       41           3
    57       49           0
    57       57           2
    57       58           4
    57       59           3
    57       61           2
    57      121           0
    58       26           1
    58       42           3
    58       50           0
    58       57           1
    58       58           2
    58       60           3
    58       62           3
    58      122           1
    59       27           1
    59       43           3
    59       51           0
    59       57           2
    59       59           3
    59       60           2
    59       63           2
    59      123           1
    60       28           3
    60       44           1
    60       52           3
    60       58           4
    60       59           4
    60       60           3
    60       64           0
    60      124           1
    61       29           2
    61       45           0
    61       53           4
    61       57           2
    61       61           3
    61       62           3
    61       63           2
    61      125           0
    62       30           1
    62       46           4
    62       54           3
    62       58           0
    62       61           0
    62       62           2
    62       64           1
    62      126           1
    63       31           4
    63       47           4
    63       55           1
    63       59           0
    63       61           0
    63       63           0
    63       64           1
    63      127           2
    64       32           0
    64       48           1
    64       56           3
    64       60           2
    64       62           4
    64       63           3
    64       64           3
    64      128           1
    65        1           1
    65       65           2
    65       66           3
    65       67           4
    65       69           4
    65       73           2
    65       81           1
    65       97           0
    66        2           3
    66       65           2
    66       66           0
    66       68           1
    66       70           3
    66       74           1
    66       82           1
    66       98           3
    67        3           1
    67       65           4
    67       67           3
    67       68           4
    67       71           2
    67       75           1
    67       83           4
    67       99           2
    68        4           2
    68       66           4
    68       67           2
    68       68           0
    68       72           4
    68       76           0
    68       84           1
    68      100           2
    69        5           2
    69       65           3
    69       69           3
    69       70           0
    69       71           4
    69       77           3
    69       85           0
    69      101           3
    70        6           0
    70       66           2
    70       69           1
    70       70           3
    70       72           3
    70       78           0
    70       86           3
    70      102           1
    71        7           3
    71       67           2
    71       69           1
    71       71           3
    71       72           0
    71       79           2
    71       87           1
    71      103           2
    72        8           1
    72       68           3
    72       70           4
    72       71           0
    72       72           1
    72       80           0
    72       88           3
    72      104           1
    73        9           3
    73       65           4
    73       73           3
    73       74           3
    73       75           1
    73       77           3
    73       89           0
    73      105           1
    74       10           4
    74       66           3
    74       73           4
    74       74           0
    74       76           2
    74       78           0
    74       90           2
    74      106           0
    75       11           1
    75       67           4
    75       73           0
    75       75           1
    75       76           0
    75       79           3
    75       91           2
    75      107           4
    76       12           4
    76       68           1
    76       74           4
    76       75           4
    76       76           2
    76       80           0
    76       92           1
    76      108           3
    77       13           0
    77       69           0
    77       73           1
    77       77           0
    77       78           2
    77       79           3
    77       93           0
    77      109           1
    78       14           1
    78       70           4
    78       74           4
    78       77           1
    78       78           4
    78       80           1
    78       94           4
    78      110           1
    79       15           3
    79       71           1
    79       75           2
    79       77           0
    79       79           4
    79       80           1
    79       95           1
    79      111           3
    80       16           3
    80       72           2
    80       76           1
    80       78           3
    80       79           3
    80       80           4
    80       96           2
    80      112           3
    81       17           3
    81       65           1
    81       81           0
    81       82           2
    81       83           4
    81       85           1
    81       89           4
    81      113           0
    82       18           3
    82       66           4
    82       81           2
    82       82           0
    82       84           1
    82       86           0
    82       90           4
    82      114           2
    83       19           3
    83       67           2
    83       81           2
    83       83           2
    83       84           4
    83       87           3
    83       91           1
    83      115           3
    84       20           4
    84       68           4
    84       82           1
    84       83           3
    84       84           4
    84       88           3
    84       92           1
    84      116           2
    85       21           4
    85       69           4
    85       81           0
    85       85           4
    85       86           0
    85       87           1
    85       93           0
    85      117           1
    86       22           3
    86       70           4
    86       82           0
    86       85           4
    86       86           0
    86       88           4
    86       94           1
    86      118           3
    87       23           0
    87       71           0
    87       83           3
    87       85           0
    87       87           2
    87       88           2
    87       95           4
    87      119           2
    88       24           2
    88       72           4
    88       84           1
    88       86           3
    88       87           2
    88       88           1
    88       96           3
    88      120           1
    89       25           0
    89       73           3
    89       81           1
    89       89           3
    89       90           4
    89       91           1
    89       93           3
    89      121           4
    90       26           3
    90       74           3
    90       82           2
    90       89           1
    90       90           1
    90       92           4
    90       94           3
    90      122           4
    91       27           1
    91       75           2
    91       83           2
    91       89           4
    91       91           3
    91       92           0
    91       95           3
    91      123           1
    92       28           2
    92       76           2
    92       84           0
    92       90           3
    92       91           1
    92       92           3
    92       96           2
    92      124           2
    93       29           1
    93       77           4
    93       85           0
    93       89           2
    93       93           4
    93       94           0
    93       95           1
    93      125           2
    94       30           1
    94       78           0
    94       86           3
    94       90           1
    94       93           3
    94       94           1
    94       96           4
    94      126           2
    95       31           1
    95       79           1
    95       87           1
    95       91           1
    95       93           1
    95       95           1
    95       96           1
    95      127           1
    96       32           3
    96       80           1
    96       88           2
    96       92           2
    96       94           3
    96       95           1
    96       96           2
    96      128           3
    97       33           1
    97       65           3
    97       97           0
    97       98           0
    97       99           1
    97      101           4
    97      105           3
    97      113           0
    98       34           0
    98       66           0
    98       97           3
    98       98           3
    98      100           2
    98      102           1
    98      106           3
    98      114           4
    99       35           4
    99       67           2
    99       97           3
    99       99           4
    99      100           4
    99      103           1
    99      107           0
    99      115           2
   100       36           2
   100       68           4
   100       98           2
   100       99           3
   100      100           1
   100      104           2
   100      108           0
   100      116           3
   101       37           0
   101       69           0
   101       97           0
   101      101           2
   101      102           0
   101      103           1
   101      109           0
   101      117           0
   102       38           1
   102       70           3
   102       98           1
   102      101           4
   102      102           2
   102      104           3
   102      110           3
   102      118           2
   103       39           4
   103       71           1
   103       99           1
   103      101           4
   103      103           4
   103      104           1
   103      111           3
   103      119           2
   104       40           0
   104       72           0
   104      100           4
   104      102           0
   104      103           1
   104      104           2
   104      112           2
   104      120           1
   105       41           1
   105       73           1
   105       97           2
   105      105           0
   105      106           2
   105      107           3
   105      109           3
   105      121           3
   106       42           0
   106       74           4
   106       98           4
   106      105           3
   106      106           1
   106      108           3
   106      110           2
   106      122           4
   107       43           0
   107       75           3
   107       99           4
   107      105           0
   107      107           2
   107      108           0
   107      111           4
   107      123           4
   108       44           0
   108       76           2
   108      100           0
   108      106           3
   108      107           2
   108      108           4
   108      112           4
   108      124           1
   109       45           2
   109       77           3
   109      101           2
   109      105           2
   109      109           3
   109      110           1
   109      111           2
   109      125           2
   110       46           0
   110       78           3
   110      102           2
   110      106           1
   110      109           4
   110      110           0
   110      112           0
   110      126           1
   111       47           4
   111       79           1
   111      103           2
   111      107           4
   111      109           2
   111      111           0
   111      112           3
   111      127           1
   112       48           0
   112       80           0
   112      104           4
   112      108           1
   112      110           4
   112      111           2
   112      112           0
   112      128           0
   113       49           0
   113       81           0
   113       97           2
   113      113           4
   113      114           3
   113      115           1
   113      117           2
   113      121           4
   114       50           2
   114       82           0
   114       98           0
   114      113           4
   114      114           0
   114      116           3
   114      118           4
   114      122           0
   115       51           0
   115       83           4
   115       99           2
   115      113           1
   115      115           0
   115      116           4
   115      119           3
   115      123           1
   116       52           3
   116       84           3
   116      100           3
   116      114           4
   116      115           4
   116      116           2
   116      120           0
   116      124           4
   117       53           2
   117       85           0
   117      101           3
   117      113           3
   117      117           1
   117      118           1
   117      119           4
   117      125           3
   118       54           2
   118       86           0
   118      102           3
   118      114           4
   118      117           2
   118      118           0
   118      120           3
   118      126           4
   119       55           4
   119       87           4
   119      103           1
   119      115           1
   119      117           0
   119      119           3
   119      120           4
   119      127           3
   120       56           0
   120       88           3
   120      104           3
   120      116           3
   120      118           3
   120      119           1
   120      120           2
   120      128           4
   121       57           2
   121       89           3
   121      105           4
   121      113           0
   121      121           2
   121      122           4
   121      123           4
   121      125           4
   122       58           4
   122       90           3
   122      106           1
   122      114           1
   122      121           2
   122      122           2
   122      124           2
   122      126           1
   123       59           4
   123       91           1
   123      107           4
   123      115           3
   123      121           2
   123      123           1
   123      124           1
   123      127           2
   124       60           3
   124       92           1
   124      108           2
   124      116           2
   124      122           4
   124      123           3
   124      124           3
   124      128           4
   125       61           4
   125       93           1
   125      109           1
   125      117           4
   125      121           1
   125      125           1
   125      126           1
   125      127           1
   126       62           1
   126       94           0
   126      110           1
   126      118           0
   126      122           2
   126      125           0
   126      126           1
   126      128           2
   127       63           4
   127       95           4
   127      111           1
   127      119           2
   127      123           1
   127      125           1
   127      127           1
   127      128           2
   128       64           1
   128       96           4
   128      112           1
   128      120           3
   128      124           4
   128      126           1
   128      127           3
   128      128           2
